0000011100000000
0000001110000000
0000000111000000
0000000111000000
0000000111000000
0000000111000000
0000000111000000
0000000111000000
0000000111000000
0000000111000000
0000000111000000
0000000111000000
0000000000000000
0000000000000000
0000000000000000
0000000000000000